c turning on binary mode checking
c parsing input formula with 202048 variables and 780985 clauses
c finished parsing, read 2840501 bytes from proof file
c detected empty clause; start verification via backward checking
c 6134 of 780985 clauses in core                            
c 2072 of 105067 lemmas in core using 73065 resolution steps
c 0 RAT lemmas in core; 430 redundant literals in core lemmas
s VERIFIED
c verification time: 1.110 seconds
